26223
0 1 1 1 1 1 0 1 1 1 1 1 1 0 1 1 1 1 0 1 1 0 1 1 1 1 1 1 0 1
19 20 1 8 9 3 8 3 24 25 9 4 10 14 27 2 7 16 16 20 16 16 4 19 17 8 7 22 3 16 4 5 7 3 2 16 7 24 24 10 1 12 12 1 22 22 12 5 22 19 17 14 24 4 17 4 5 9 14 15 17 27 22 25 15 24 5 14 9 10 19 3 2 8 5 15 16 11 3 14 5 25 11 23 20 5 15 2 24 15 9 29 27 27 29 17 20 29 11 3 29 9 19 11 27 7 1 23 11 9 25 1 29 29 7 17 20 19 11 3 15 10 10 22 1 15 14 20 8 2 23 8 12 9 16 26 5 23 14 1 2 17 19 11 11 19 11 8 11 9 8 11 5 22 4 25 5 24 12 17 23 8 19 17 26 26 2 5 29 23 2 14 24 20 23 10 2 14 27 4 26 4 19 22 26 15 29 1 8 29 16 8 26 20 8 10 4 1 27 8